peakDumbCharging = 14800; 
Machine = anon_enum(16); 
machineSpeed = [3700,3700,3700,3700,3700,3700,3700,3700,3700,3700,3700,3700,3700,3700,3700,3700]; 
machineLoad = [3700,3700,3700,3700,3700,3700,3700,3700,3700,3700,3700,3700,3700,3700,3700,3700]; 
Car = anon_enum(22); 
demandCar = [8440,5760,12760,3160,3560,6280,3120,10520,11520,4240,7200,9160,10560,11440,22600,13800,10000,9480,15640,9640,32840,32440]; 
arrivalCar = [82,77,76,76,76,74,72,69,69,68,67,65,64,57,55,50,49,42,40,39,32,29]; 
departureCar = [85,81,81,79,78,81,74,73,74,70,74,70,68,61,65,56,53,49,50,42,63,52]; 
